p tw 105 1365
0 1
0 2
0 3
0 4
0 5
0 6
0 7
0 8
0 9
0 10
0 11
0 12
0 13
0 22
0 37
0 47
0 56
0 66
0 69
0 83
0 89
0 94
0 98
0 100
0 102
0 104
1 2
1 3
1 4
1 5
1 6
1 7
1 8
1 9
1 10
1 11
1 12
1 13
1 18
1 29
1 40
1 58
1 60
1 71
1 77
1 78
1 79
1 80
1 81
1 82
1 83
2 3
2 4
2 5
2 6
2 7
2 8
2 9
2 10
2 11
2 12
2 13
2 17
2 30
2 49
2 52
2 68
2 75
2 82
2 84
2 93
2 95
2 99
2 100
2 101
3 4
3 5
3 6
3 7
3 8
3 9
3 10
3 11
3 12
3 13
3 25
3 35
3 46
3 54
3 67
3 70
3 78
3 87
3 90
3 96
3 99
3 103
3 104
4 5
4 6
4 7
4 8
4 9
4 10
4 11
4 12
4 13
4 24
4 31
4 44
4 50
4 51
4 52
4 53
4 54
4 55
4 56
4 57
4 58
4 59
5 6
5 7
5 8
5 9
5 10
5 11
5 12
5 13
5 19
5 32
5 42
5 53
5 64
5 74
5 80
5 84
5 85
5 86
5 87
5 88
5 89
6 7
6 8
6 9
6 10
6 11
6 12
6 13
6 26
6 27
6 28
6 29
6 30
6 31
6 32
6 33
6 34
6 35
6 36
6 37
6 38
7 8
7 9
7 10
7 11
7 12
7 13
7 20
7 36
7 45
7 50
7 63
7 69
7 70
7 71
7 72
7 73
7 74
7 75
7 76
8 9
8 10
8 11
8 12
8 13
8 23
8 33
8 39
8 40
8 41
8 42
8 43
8 44
8 45
8 46
8 47
8 48
8 49
9 10
9 11
9 12
9 13
9 21
9 38
9 43
9 55
9 62
9 73
9 81
9 85
9 90
9 91
9 92
9 93
9 94
10 11
10 12
10 13
10 14
10 15
10 16
10 17
10 18
10 19
10 20
10 21
10 22
10 23
10 24
10 25
10 26
11 12
11 13
11 14
11 28
11 48
11 59
11 60
11 61
11 62
11 63
11 64
11 65
11 66
11 67
11 68
12 13
12 15
12 27
12 41
12 51
12 61
12 72
12 77
12 88
12 91
12 97
12 101
12 102
12 103
13 16
13 34
13 39
13 57
13 65
13 76
13 79
13 86
13 92
13 95
13 96
13 97
13 98
14 15
14 16
14 17
14 18
14 19
14 20
14 21
14 22
14 23
14 24
14 25
14 26
14 28
14 48
14 59
14 60
14 61
14 62
14 63
14 64
14 65
14 66
14 67
14 68
15 16
15 17
15 18
15 19
15 20
15 21
15 22
15 23
15 24
15 25
15 26
15 27
15 41
15 51
15 61
15 72
15 77
15 88
15 91
15 97
15 101
15 102
15 103
16 17
16 18
16 19
16 20
16 21
16 22
16 23
16 24
16 25
16 26
16 34
16 39
16 57
16 65
16 76
16 79
16 86
16 92
16 95
16 96
16 97
16 98
17 18
17 19
17 20
17 21
17 22
17 23
17 24
17 25
17 26
17 30
17 49
17 52
17 68
17 75
17 82
17 84
17 93
17 95
17 99
17 100
17 101
18 19
18 20
18 21
18 22
18 23
18 24
18 25
18 26
18 29
18 40
18 58
18 60
18 71
18 77
18 78
18 79
18 80
18 81
18 82
18 83
19 20
19 21
19 22
19 23
19 24
19 25
19 26
19 32
19 42
19 53
19 64
19 74
19 80
19 84
19 85
19 86
19 87
19 88
19 89
20 21
20 22
20 23
20 24
20 25
20 26
20 36
20 45
20 50
20 63
20 69
20 70
20 71
20 72
20 73
20 74
20 75
20 76
21 22
21 23
21 24
21 25
21 26
21 38
21 43
21 55
21 62
21 73
21 81
21 85
21 90
21 91
21 92
21 93
21 94
22 23
22 24
22 25
22 26
22 37
22 47
22 56
22 66
22 69
22 83
22 89
22 94
22 98
22 100
22 102
22 104
23 24
23 25
23 26
23 33
23 39
23 40
23 41
23 42
23 43
23 44
23 45
23 46
23 47
23 48
23 49
24 25
24 26
24 31
24 44
24 50
24 51
24 52
24 53
24 54
24 55
24 56
24 57
24 58
24 59
25 26
25 35
25 46
25 54
25 67
25 70
25 78
25 87
25 90
25 96
25 99
25 103
25 104
26 27
26 28
26 29
26 30
26 31
26 32
26 33
26 34
26 35
26 36
26 37
26 38
27 28
27 29
27 30
27 31
27 32
27 33
27 34
27 35
27 36
27 37
27 38
27 41
27 51
27 61
27 72
27 77
27 88
27 91
27 97
27 101
27 102
27 103
28 29
28 30
28 31
28 32
28 33
28 34
28 35
28 36
28 37
28 38
28 48
28 59
28 60
28 61
28 62
28 63
28 64
28 65
28 66
28 67
28 68
29 30
29 31
29 32
29 33
29 34
29 35
29 36
29 37
29 38
29 40
29 58
29 60
29 71
29 77
29 78
29 79
29 80
29 81
29 82
29 83
30 31
30 32
30 33
30 34
30 35
30 36
30 37
30 38
30 49
30 52
30 68
30 75
30 82
30 84
30 93
30 95
30 99
30 100
30 101
31 32
31 33
31 34
31 35
31 36
31 37
31 38
31 44
31 50
31 51
31 52
31 53
31 54
31 55
31 56
31 57
31 58
31 59
32 33
32 34
32 35
32 36
32 37
32 38
32 42
32 53
32 64
32 74
32 80
32 84
32 85
32 86
32 87
32 88
32 89
33 34
33 35
33 36
33 37
33 38
33 39
33 40
33 41
33 42
33 43
33 44
33 45
33 46
33 47
33 48
33 49
34 35
34 36
34 37
34 38
34 39
34 57
34 65
34 76
34 79
34 86
34 92
34 95
34 96
34 97
34 98
35 36
35 37
35 38
35 46
35 54
35 67
35 70
35 78
35 87
35 90
35 96
35 99
35 103
35 104
36 37
36 38
36 45
36 50
36 63
36 69
36 70
36 71
36 72
36 73
36 74
36 75
36 76
37 38
37 47
37 56
37 66
37 69
37 83
37 89
37 94
37 98
37 100
37 102
37 104
38 43
38 55
38 62
38 73
38 81
38 85
38 90
38 91
38 92
38 93
38 94
39 40
39 41
39 42
39 43
39 44
39 45
39 46
39 47
39 48
39 49
39 57
39 65
39 76
39 79
39 86
39 92
39 95
39 96
39 97
39 98
40 41
40 42
40 43
40 44
40 45
40 46
40 47
40 48
40 49
40 58
40 60
40 71
40 77
40 78
40 79
40 80
40 81
40 82
40 83
41 42
41 43
41 44
41 45
41 46
41 47
41 48
41 49
41 51
41 61
41 72
41 77
41 88
41 91
41 97
41 101
41 102
41 103
42 43
42 44
42 45
42 46
42 47
42 48
42 49
42 53
42 64
42 74
42 80
42 84
42 85
42 86
42 87
42 88
42 89
43 44
43 45
43 46
43 47
43 48
43 49
43 55
43 62
43 73
43 81
43 85
43 90
43 91
43 92
43 93
43 94
44 45
44 46
44 47
44 48
44 49
44 50
44 51
44 52
44 53
44 54
44 55
44 56
44 57
44 58
44 59
45 46
45 47
45 48
45 49
45 50
45 63
45 69
45 70
45 71
45 72
45 73
45 74
45 75
45 76
46 47
46 48
46 49
46 54
46 67
46 70
46 78
46 87
46 90
46 96
46 99
46 103
46 104
47 48
47 49
47 56
47 66
47 69
47 83
47 89
47 94
47 98
47 100
47 102
47 104
48 49
48 59
48 60
48 61
48 62
48 63
48 64
48 65
48 66
48 67
48 68
49 52
49 68
49 75
49 82
49 84
49 93
49 95
49 99
49 100
49 101
50 51
50 52
50 53
50 54
50 55
50 56
50 57
50 58
50 59
50 63
50 69
50 70
50 71
50 72
50 73
50 74
50 75
50 76
51 52
51 53
51 54
51 55
51 56
51 57
51 58
51 59
51 61
51 72
51 77
51 88
51 91
51 97
51 101
51 102
51 103
52 53
52 54
52 55
52 56
52 57
52 58
52 59
52 68
52 75
52 82
52 84
52 93
52 95
52 99
52 100
52 101
53 54
53 55
53 56
53 57
53 58
53 59
53 64
53 74
53 80
53 84
53 85
53 86
53 87
53 88
53 89
54 55
54 56
54 57
54 58
54 59
54 67
54 70
54 78
54 87
54 90
54 96
54 99
54 103
54 104
55 56
55 57
55 58
55 59
55 62
55 73
55 81
55 85
55 90
55 91
55 92
55 93
55 94
56 57
56 58
56 59
56 66
56 69
56 83
56 89
56 94
56 98
56 100
56 102
56 104
57 58
57 59
57 65
57 76
57 79
57 86
57 92
57 95
57 96
57 97
57 98
58 59
58 60
58 71
58 77
58 78
58 79
58 80
58 81
58 82
58 83
59 60
59 61
59 62
59 63
59 64
59 65
59 66
59 67
59 68
60 61
60 62
60 63
60 64
60 65
60 66
60 67
60 68
60 71
60 77
60 78
60 79
60 80
60 81
60 82
60 83
61 62
61 63
61 64
61 65
61 66
61 67
61 68
61 72
61 77
61 88
61 91
61 97
61 101
61 102
61 103
62 63
62 64
62 65
62 66
62 67
62 68
62 73
62 81
62 85
62 90
62 91
62 92
62 93
62 94
63 64
63 65
63 66
63 67
63 68
63 69
63 70
63 71
63 72
63 73
63 74
63 75
63 76
64 65
64 66
64 67
64 68
64 74
64 80
64 84
64 85
64 86
64 87
64 88
64 89
65 66
65 67
65 68
65 76
65 79
65 86
65 92
65 95
65 96
65 97
65 98
66 67
66 68
66 69
66 83
66 89
66 94
66 98
66 100
66 102
66 104
67 68
67 70
67 78
67 87
67 90
67 96
67 99
67 103
67 104
68 75
68 82
68 84
68 93
68 95
68 99
68 100
68 101
69 70
69 71
69 72
69 73
69 74
69 75
69 76
69 83
69 89
69 94
69 98
69 100
69 102
69 104
70 71
70 72
70 73
70 74
70 75
70 76
70 78
70 87
70 90
70 96
70 99
70 103
70 104
71 72
71 73
71 74
71 75
71 76
71 77
71 78
71 79
71 80
71 81
71 82
71 83
72 73
72 74
72 75
72 76
72 77
72 88
72 91
72 97
72 101
72 102
72 103
73 74
73 75
73 76
73 81
73 85
73 90
73 91
73 92
73 93
73 94
74 75
74 76
74 80
74 84
74 85
74 86
74 87
74 88
74 89
75 76
75 82
75 84
75 93
75 95
75 99
75 100
75 101
76 79
76 86
76 92
76 95
76 96
76 97
76 98
77 78
77 79
77 80
77 81
77 82
77 83
77 88
77 91
77 97
77 101
77 102
77 103
78 79
78 80
78 81
78 82
78 83
78 87
78 90
78 96
78 99
78 103
78 104
79 80
79 81
79 82
79 83
79 86
79 92
79 95
79 96
79 97
79 98
80 81
80 82
80 83
80 84
80 85
80 86
80 87
80 88
80 89
81 82
81 83
81 85
81 90
81 91
81 92
81 93
81 94
82 83
82 84
82 93
82 95
82 99
82 100
82 101
83 89
83 94
83 98
83 100
83 102
83 104
84 85
84 86
84 87
84 88
84 89
84 93
84 95
84 99
84 100
84 101
85 86
85 87
85 88
85 89
85 90
85 91
85 92
85 93
85 94
86 87
86 88
86 89
86 92
86 95
86 96
86 97
86 98
87 88
87 89
87 90
87 96
87 99
87 103
87 104
88 89
88 91
88 97
88 101
88 102
88 103
89 94
89 98
89 100
89 102
89 104
90 91
90 92
90 93
90 94
90 96
90 99
90 103
90 104
91 92
91 93
91 94
91 97
91 101
91 102
91 103
92 93
92 94
92 95
92 96
92 97
92 98
93 94
93 95
93 99
93 100
93 101
94 98
94 100
94 102
94 104
95 96
95 97
95 98
95 99
95 100
95 101
96 97
96 98
96 99
96 103
96 104
97 98
97 101
97 102
97 103
98 100
98 102
98 104
99 100
99 101
99 103
99 104
100 101
100 102
100 104
101 102
101 103
102 103
102 104
103 104
